
******************************************************************************
This program contains Ipopt, a library for large-scale nonlinear optimization.
 Ipopt is released as open source code under the Eclipse Public License (EPL).
         For more information visit http://projects.coin-or.org/Ipopt
******************************************************************************

This is Ipopt version 3.12.6, running with linear solver ma57.

Number of nonzeros in equality constraint Jacobian...:        0
Number of nonzeros in inequality constraint Jacobian.:       68
Number of nonzeros in Lagrangian Hessian.............:       59

Total number of variables............................:       16
                     variables with only lower bounds:        0
                variables with lower and upper bounds:       16
                     variables with only upper bounds:        0
Total number of equality constraints.................:        0
Total number of inequality constraints...............:       20
        inequality constraints with only lower bounds:        0
   inequality constraints with lower and upper bounds:        1
        inequality constraints with only upper bounds:       19

iter    objective    inf_pr   inf_du lg(mu)  ||d||  lg(rg) alpha_du alpha_pr  ls
   0  2.8473273e+02 3.47e+01 9.86e-01  -1.0 0.00e+00    -  0.00e+00 0.00e+00   0
   1  2.8154697e+02 3.15e+01 4.08e+00  -1.0 4.92e+00    -  2.80e-01 8.15e-02f  1
   2  2.7693285e+02 2.69e+01 8.28e+00  -1.0 1.68e+01    -  1.70e-01 1.31e-01h  1
   3  2.7473229e+02 2.47e+01 1.97e+02  -1.0 4.31e+01    -  8.17e-01 8.94e-02h  1
   4  2.6104591e+02 1.10e+01 7.51e+01  -1.0 9.16e+01    -  3.50e-01 6.85e-01f  1
   5  2.5489643e+02 4.90e+00 3.38e+01  -1.0 5.10e+01    -  5.16e-01 4.25e-01f  1
   6  2.4025461e+02 5.82e-03 5.33e+01  -1.0 3.19e+01    -  2.57e-01 6.67e-01f  1
   7  2.1307690e+02 2.21e-03 9.03e+00  -1.0 4.10e+01    -  9.26e-01 5.62e-01f  1
   8  1.9980846e+02 1.24e-04 9.17e+00  -1.0 4.39e+01    -  8.77e-01 8.51e-01f  1
   9  1.9262913e+02 0.00e+00 3.30e+02  -1.0 4.30e+02    -  9.92e-01 5.74e-01f  1
iter    objective    inf_pr   inf_du lg(mu)  ||d||  lg(rg) alpha_du alpha_pr  ls
  10  1.9158598e+02 0.00e+00 2.87e+00  -1.0 4.39e+01    -  1.00e+00 1.00e+00f  1
  11  1.9168728e+02 0.00e+00 1.41e-01  -1.0 6.34e+01    -  1.00e+00 1.00e+00h  1
  12  1.8327256e+02 0.00e+00 1.25e+02  -2.5 5.90e+01    -  7.96e-01 5.65e-01f  1
  13  1.7788864e+02 0.00e+00 3.81e+01  -2.5 1.15e+02    -  8.01e-01 7.88e-01f  1
  14  1.7661325e+02 0.00e+00 3.78e+02  -2.5 2.67e+00    -  9.24e-01 7.63e-01f  1
  15  1.7590412e+02 0.00e+00 1.60e-01  -2.5 1.31e+00  -2.0 1.00e+00 1.00e+00f  1
  16  1.7563294e+02 0.00e+00 2.42e+03  -2.5 8.26e+01    -  7.80e-01 4.72e-01h  1
  17  1.7548246e+02 0.00e+00 3.47e+00  -2.5 4.77e-01  -2.5 1.00e+00 1.00e+00f  1
  18  1.7540269e+02 0.00e+00 1.46e+03  -2.5 1.61e+02    -  7.04e-01 4.38e-01h  2
  19  1.7532956e+02 0.00e+00 1.01e+00  -2.5 9.91e+01    -  1.00e+00 1.00e+00h  1
iter    objective    inf_pr   inf_du lg(mu)  ||d||  lg(rg) alpha_du alpha_pr  ls
  20  1.7534497e+02 0.00e+00 5.13e-03  -2.5 4.26e+01    -  1.00e+00 1.00e+00h  1
  21  1.7505293e+02 0.00e+00 4.58e+03  -5.7 9.62e+01    -  7.43e-01 5.07e-01f  1
  22  1.7486225e+02 0.00e+00 4.36e+03  -5.7 7.10e+01    -  8.65e-01 7.80e-01h  1
  23  1.7481940e+02 0.00e+00 5.60e+04  -5.7 1.68e+01    -  1.00e+00 5.10e-01f  1
  24  1.7480823e+02 0.00e+00 8.81e+04  -5.7 8.33e+00    -  4.86e-01 1.11e-01f  1
In iteration 24, 1 Slack too small, adjusting variable bound
  25  1.7480823e+02 0.00e+00 7.88e+05  -5.7 7.84e+00    -  6.03e-01 3.09e-05h  1
  26  1.7480843e+02 0.00e+00 8.70e+06  -5.7 7.81e+00    -  7.48e-04 7.51e-03f  7
  27  1.7480841e+02 0.00e+00 8.65e+06  -5.7 4.36e-04   2.5 8.47e-01 6.75e-03h  1
  28  1.7480587e+02 0.00e+00 4.23e+05  -5.7 4.47e-04   2.9 1.85e-02 1.00e+00f  1
  29  1.7480295e+02 0.00e+00 4.18e+05  -5.7 3.13e+01    -  2.16e-02 1.05e-02f  1
iter    objective    inf_pr   inf_du lg(mu)  ||d||  lg(rg) alpha_du alpha_pr  ls
  30  1.7480134e+02 0.00e+00 4.43e+04  -5.7 3.28e-04   2.4 9.36e-01 8.94e-01f  1
  31  1.7479755e+02 1.17e-10 4.41e+04  -5.7 5.15e+01    -  2.62e-03 3.93e-03f  1
  32  1.7479716e+02 1.35e-08 2.08e+04  -5.7 5.38e-04   1.9 5.01e-02 5.29e-01f  1
  33  1.7479603e+02 0.00e+00 4.63e-02  -5.7 1.61e-03   1.5 1.00e+00 1.00e+00f  1
Reallocating memory for MA57: lfact (1219)
  34  1.7479072e+02 0.00e+00 1.02e+02  -5.7 4.10e+02    -  1.00e+00 1.32e-02f  1
  35  1.7478714e+02 9.57e-09 1.22e-01  -5.7 1.70e+00    -  1.00e+00 9.97e-01f  1
Reallocating memory for MA57: lfact (1740)
  36  1.7478718e+02 4.21e-13 4.46e+02  -5.7 4.68e-02    -  6.98e-03 1.51e-01f  1
  37  1.7478728e+02 0.00e+00 5.70e-05  -5.7 4.00e-02    -  1.00e+00 1.00e+00f  1
  38  1.7478728e+02 0.00e+00 1.42e-07  -5.7 1.30e-03    -  1.00e+00 1.00e+00h  1
  39  1.7478699e+02 0.00e+00 2.85e+00  -8.6 1.01e-01    -  9.34e-01 9.19e-01f  1
iter    objective    inf_pr   inf_du lg(mu)  ||d||  lg(rg) alpha_du alpha_pr  ls
  40  1.7478698e+02 7.45e-14 8.93e+00  -8.6 8.36e-03    -  6.93e-01 4.95e-01f  1
In iteration 40, 1 Slack too small, adjusting variable bound
  41  1.7478698e+02 0.00e+00 4.53e+00  -8.6 4.21e-03    -  9.10e-01 7.01e-01f  1
  42  1.7478698e+02 0.00e+00 6.90e+00  -8.6 1.24e-03    -  6.92e-01 1.00e+00h  1
  43  1.7478698e+02 0.00e+00 4.44e-08  -8.6 4.48e-05    -  1.00e+00 1.00e+00h  1
  44  1.7478698e+02 0.00e+00 1.45e-10  -8.6 3.48e-07    -  1.00e+00 1.00e+00h  1

Number of Iterations....: 44

                                   (scaled)                 (unscaled)
Objective...............:   2.1843211521621726e+01    1.7478697584274968e+02
Dual infeasibility......:   1.4510817978708773e-10    1.1611396927564996e-09
Constraint violation....:   0.0000000000000000e+00    0.0000000000000000e+00
Complementarity.........:   2.5300330510721108e-09    2.0245046171043416e-08
Overall NLP error.......:   2.5300330510721108e-09    2.0245046171043416e-08


Number of objective function evaluations             = 56
Number of objective gradient evaluations             = 45
Number of equality constraint evaluations            = 0
Number of inequality constraint evaluations          = 56
Number of equality constraint Jacobian evaluations   = 0
Number of inequality constraint Jacobian evaluations = 45
Number of Lagrangian Hessian evaluations             = 44
Total CPU secs in IPOPT (w/o function evaluations)   =      0.010
Total CPU secs in NLP function evaluations           =      0.000

EXIT: Optimal Solution Found.
Note: The following floating-point exceptions are signalling: IEEE_INVALID_FLAG IEEE_DIVIDE_BY_ZERO

************************ CUTEst statistics ************************


 Package used            :  IPOPT
 Problem                 :  DEMBO7    
 # variables             =              16
 # constraints           =              20
 # objective functions   =        0.1020000E+03
 # objective gradients   =        0.4600000E+02
 # objective Hessians    =        0.4500000E+02
 # Hessian-vector prdct  =        0.0000000E+00
 # constraints functions =        0.1030000E+03
 # constraints gradients =        0.4700000E+02
 # constraints Hessians  =        0.4500000E+02
 Exit code               =               0
 Final f                 =   0.1747870E+03
 Set up time             =            0.00 seconds
 Solve time              =            0.06 seconds


******************************************************************

System Time =       0.0170000009 s.
